; Top-down merge sort, using division by two on natural numbers
(declare-datatypes (a)
  ((list (nil) (cons (head a) (tail (list a))))))
(define-fun-rec
  (par (a)
    (take
       ((x Int) (y (list a))) (list a)
       (ite
         (<= x 0) (as nil (list a))
         (match y
           (case nil (as nil (list a)))
           (case (cons z xs) (cons z (take (- x 1) xs))))))))
(define-fun-rec
  nmsorttd-half1
    ((x Int)) Int
    (ite (= x 1) 0 (ite (= x 0) 0 (+ 1 (nmsorttd-half1 (- x 2))))))
(define-fun-rec
  (par (a)
    (lmerge
       ((x (list a)) (y (list a))) (list a)
       (match x
         (case nil y)
         (case (cons z x2)
           (match y
             (case nil x)
             (case (cons x3 x4)
               (ite
                 (<= z x3) (cons z (lmerge x2 y)) (cons x3 (lmerge x x4))))))))))
(define-fun-rec
  (par (a)
    (length
       ((x (list a))) Int
       (match x
         (case nil 0)
         (case (cons y l) (+ 1 (length l)))))))
(define-fun-rec
  (par (a)
    (insert2
       ((x a) (y (list a))) (list a)
       (match y
         (case nil (cons x (as nil (list a))))
         (case (cons z xs)
           (ite (<= x z) (cons x y) (cons z (insert2 x xs))))))))
(define-fun-rec
  (par (a)
    (isort
       ((x (list a))) (list a)
       (match x
         (case nil (as nil (list a)))
         (case (cons y xs) (insert2 y (isort xs)))))))
(define-fun-rec
  (par (a)
    (drop
       ((x Int) (y (list a))) (list a)
       (ite
         (<= x 0) y
         (match y
           (case nil (as nil (list a)))
           (case (cons z xs1) (drop (- x 1) xs1)))))))
(define-fun-rec
  (par (a)
    (nmsorttd
       ((x (list a))) (list a)
       (match x
         (case nil (as nil (list a)))
         (case (cons y z)
           (match z
             (case nil (cons y (as nil (list a))))
             (case (cons x2 x3)
               (let ((k (nmsorttd-half1 (length x))))
                 (lmerge (nmsorttd (take k x)) (nmsorttd (drop k x)))))))))))
(assert-not (forall ((x (list Int))) (= (nmsorttd x) (isort x))))
(check-sat)
